Comps = {frontend0, frontend1, frontend2, backend0, backend1, database0, database1};
mustComps = {frontend0, frontend1, frontend2};
Flavs = {tiny, medium, large};
Nodes = {n1, n2, n3};
CRes = {CPU, RAM, storage, bwIn, bwOut};
NRes = {ssl, fwall, encr, avail, latency};
Flav = [{medium, large}, {medium, large}, {medium, large}, {tiny, medium, large}, {tiny, medium, large}, {large}, {large}];
Uses = [{backend0}, {backend1}, {backend0}, {backend0}, {backend1}, {backend0}, {}, {}, {database0}, {database0}, {database0}, {database0}, {}, {}];
MAX_BOUND = 1000000;

worstBounds = [0, 0, 0, 0, 0, 0, 0, 0, 0, MAX_BOUND];
bestBounds = [MAX_BOUND - i | i in worstBounds];

comReq = array2d(CompFlavs, Res, [
  4, 294, 283, 755, 877, 1, 1, 1, 97, MAX_BOUND,
  2, 375, 256, 933, 977, 0, 1, 1, 96, MAX_BOUND,
  2, 307, 473, 908, 640, 1, 1, 0, 96, MAX_BOUND,
  2, 441, 312, 893, 822, 0, 0, 1, 97, MAX_BOUND,
  2, 384, 361, 751, 204, 1, 1, 1, 95, MAX_BOUND,
  2, 310, 392, 610, 629, 1, 1, 1, 96, MAX_BOUND,
  2, 274, 274, 726, 447, 1, 1, 1, 96, MAX_BOUND,
  2, 401, 400, 454, 620, 1, 1, 1, 95, MAX_BOUND,
  4, 217, 452, 322, 706, 1, 1, 1, 95, MAX_BOUND,
  4, 214, 487, 539, 533, 1, 0, 0, 96, MAX_BOUND,
  2, 485, 271, 511, 539, 1, 0, 0, 95, MAX_BOUND,
  2, 210, 490, 982, 665, 1, 1, 0, 97, MAX_BOUND,
  2, 321, 287, 460, 269, 1, 1, 0, 95, MAX_BOUND,
  4, 418, 366, 633, 314, 1, 0, 1, 97, MAX_BOUND,
]);

nodeCap = array2d(Nodes0, Res, [bestBounds[r] | r in Res] ++ [
  32, 91671, 781941, 16710, 11835, 1, 1, 1, 98, 0,
  32, 99041, 979668, 23455, 12140, 1, 1, 1, 98, 0,
  16, 42989, 448157, 18094, 13249, 1, 1, 1, 99, 0,
]);

cost = array2d(Nodes0, Res, [
  0, 0, 0, 0, 0, 0, 0, 0, 0, 0, % no node
  14, 5, 25, 0, 0, 0, 0, 0, 0, 0,
  17, 8, 25, 0, 0, 0, 0, 0, 0, 0,
  15, 7, 24, 0, 0, 0, 0, 0, 0, 0,
]);

cons = array2d(Nodes0, Res, [
  0, 0, 0, 0, 0, 0, 0, 0, 0, 0, % no node
  20, 36, 47, 0, 0, 0, 0, 0, 0, 0,
  30, 37, 46, 0, 0, 0, 0, 0, 0, 0,
  7, 37, 22, 0, 0, 0, 0, 0, 0, 0,
]);

costWeight = 0;
consWeight = 1;

costBudget = 39436;
consBudget = 50792;

depReq = array3d(Comps, Comps, Res, [
  if c1 = frontend2 /\ c2 = backend0 /\ r = N(avail) then
    96
  elseif c1 = frontend0 /\ c2 = backend0 /\ r = N(avail) then
    95
  elseif c1 = frontend2 /\ c2 = backend1 /\ r = N(avail) then
    97
  elseif c1 = frontend0 /\ c2 = backend1 /\ r = N(avail) then
    96
  elseif c1 = frontend1 /\ c2 = backend0 /\ r = N(avail) then
    96
  else
    worstBounds[r]
  endif | c1 in Comps, c2 in Comps, r in Res]);

linkCap = array3d(Nodes0, Nodes0, Res, [
  if ni = 0 \/ nj = 0 then
    bestBounds[r]
  elseif ni = nj /\ r = N(avail) then
    nodeCap[ni,r]
  elseif {ni, nj} = {n1, n3} /\ r = N(avail) then
    98
  elseif {ni, nj} = {n1, n2} /\ r = N(avail) then
    98
  elseif {ni, nj} = {n2, n3} /\ r = N(avail) then
    99
  else
    worstBounds[r]
  endif | ni in Nodes0, nj in Nodes0, r in Res]);

imp = array2d(Comps, Flavs, [
  2, 3, 9,
  1, 3, 5,
  4, 7, 8,
  2, 8, 10,
  4, 5, 9,
  2, 3, 8,
  8, 9, 10,
]);

